
Gurobi 6.0.5 (linux64) logging started Mon Oct 23 09:35:35 2017


Gurobi 6.0.5 (linux64) logging started Mon Oct 23 09:36:07 2017


Gurobi 6.0.5 (linux64) logging started Mon Oct 23 09:36:27 2017


Gurobi 6.0.5 (linux64) logging started Mon Oct 23 09:36:39 2017


Gurobi 6.0.5 (linux64) logging started Mon Oct 23 09:36:59 2017


Gurobi 6.0.5 (linux64) logging started Mon Oct 23 09:37:31 2017

